NAME: renB15
TYPE: TSP
COMMENT: 15 random cities (seed : 2)
DIMENSION: 15
EDGE_WEIGHT_TYPE : EUC_2D
NODE_COORD_SECTION
1 108 372
2 40 67
3 389 350
4 606 719
5 847 68
6 94 86
7 434 614
8 514 416
9 67 399
10 530 231
11 678 647
12 599 642
13 256 214
14 562 635
15 553 362
EOF
